nNurses = 68;
nHours = 36;
minHours = 9;
maxHours = 18;
maxConsec = 13;
maxPresence = 31;
demand = [7, 8, 9, 12, 16, 11, 14, 16, 15, 18, 18, 20, 25, 21, 21, 17, 22, 19, 14, 12, 13, 12, 11, 9, 8, 12, 9, 9, 13, 13, 13, 13, 16, 17, 19, 24];
